9950
0 1 0 0 0 0 1 1 0 0 
7 7 7 7 7 7 7 7 7 7 7 7 7 7 7 7 7 1 7 1 1 1 1 1 7 1 1 7 6 7 6 6 6 6 6 6 6 6 6 6 6 6 6 6 6 7 6 6 8 8 3 3 6 6 6 6 6 6 6 6 6 5 5 6 5 5 5 6 6 0 0 0 0 0 9 0 0 0 0 0 4 4 4 4 4 4 4 4 4 4 4 9 4 9 4 4 2 4 2 2 
